p cnf 30 73
a 24 4 0
e 1 2 3 5 6 7 8 9 10 11 12 13 14 15 16 17 18 19 20 21 22 23 25 26 27 28 29 30 0
1 -2 -3 0
-1 2 -3 0
1 2 3 0
-1 -2 3 0
4 5 -6 0
-4 -5 -6 0
4 -5 6 0
-4 5 6 0
7 -3 0
7 -6 0
3 6 -7 0
-9 -2 0
-9 -8 0
2 8 9 0
10 1 0
10 9 0
-1 -9 -10 0
-12 -11 0
-12 -2 0
11 2 12 0
-13 10 0
-13 -12 0
-10 12 13 0
-15 -14 0
-15 -8 0
14 8 15 0
-18 2 0
-18 -17 0
-2 17 18 0
2 -18 -19 0
-2 18 -19 0
2 18 19 0
-2 -18 19 0
20 16 0
20 19 0
-16 -19 -20 0
-21 -15 0
-21 20 0
15 -20 21 0
23 22 0
23 17 0
-22 -17 -23 0
-24 14 0
-24 -8 0
-14 8 24 0
25 -23 0
25 -24 0
23 24 -25 0
21 25 -26 0
-21 -25 -26 0
21 -25 26 0
-21 25 26 0
27 -22 0
27 -9 0
22 9 -27 0
-28 26 0
-28 -27 0
-26 27 28 0
-13 -28 -29 0
13 28 -29 0
-13 28 29 0
13 -28 29 0
30 -7 0
30 29 0
7 -29 -30 0
17 24 27 1 -25 -19 0
-19 -13 18 0
-18 -2 -14 -5 0
24 -30 4 14 0
-1 15 -8 0
12 16 -2 0
-21 -10 2 14 16 -20 0
30 0
